results/x-long/X-n129-k18.vrp_seed-34.out
28948	1039
