results/x-long/X-n129-k18.vrp_seed-34.vrp.sol
Route #1: 91 75 103 89 66 15
Route #2: 16 12 96 95 116 92 49 73 114 32
Route #3: 47 127 28 118 38
Route #4: 86 88 113 27 52 50 78
Route #5: 3
Route #6: 90 44 1 23 59 18 64
Route #7: 93 39 25 84 43 30 67
Route #8: 62 56 13 57 35 77 60
Route #9: 80 68 98 4 111 94 121 87
Route #10: 82 124 7 9 63 20
Route #11: 102 112 72 100 108 26 123
Route #12: 83 109 51 120 8 37
Route #13: 54 22 46 33 21 34 2 48 6 19
Route #14: 45 29 36 81 128
Route #15: 126 11 85 61 41 55 40 58 101 17 110
Route #16: 24 125 31 97 69 42 99 14 70 53
Route #17: 119 5 106 122 115 117 74
Route #18: 107 65 105 76 79 10 104 71
Cost 28948.000000